
Gurobi 6.5.2 (win64) logging started 07/22/16 17:39:51


Gurobi 6.5.2 (win64) logging started 07/22/16 17:39:51

Optimize a model with 15 rows, 117 columns and 117 nonzeros
Coefficient statistics:
  Matrix range    [1e+00, 1e+00]
  Objective range [4e+00, 4e+02]
  Bounds range    [1e+00, 1e+00]
  RHS range       [1e+00, 1e+00]
Found heuristic solution: objective 1832
Presolve removed 15 rows and 117 columns
Presolve time: 0.00s
Presolve: All rows and columns removed

Explored 0 nodes (0 simplex iterations) in 0.00 seconds
Thread count was 1 (of 8 available processors)

Optimal solution found (tolerance 1.00e-04)
Best objective 1.832000000000e+03, best bound 1.832000000000e+03, gap 0.0%

Wrote requested result file 'H1\instance1\\Results1.lp'


Gurobi 6.5.2 (win64) logging started 07/22/16 17:50:50


Gurobi 6.5.2 (win64) logging started 07/22/16 17:50:50

Optimize a model with 5 rows, 31 columns and 31 nonzeros
Coefficient statistics:
  Matrix range    [1e+00, 1e+00]
  Objective range [2e+00, 2e+01]
  Bounds range    [1e+00, 1e+00]
  RHS range       [1e+00, 1e+00]
Found heuristic solution: objective 27
Presolve removed 5 rows and 31 columns
Presolve time: 0.00s
Presolve: All rows and columns removed

Explored 0 nodes (0 simplex iterations) in 0.00 seconds
Thread count was 1 (of 8 available processors)

Optimal solution found (tolerance 1.00e-04)
Best objective 2.700000000000e+01, best bound 2.700000000000e+01, gap 0.0%

Wrote requested result file 'H1\instance1\\Results1.lp'


Gurobi 6.5.2 (win64) logging started 07/22/16 17:52:54


Gurobi 6.5.2 (win64) logging started 07/22/16 17:52:54

Optimize a model with 5 rows, 31 columns and 31 nonzeros
Coefficient statistics:
  Matrix range    [1e+00, 1e+00]
  Objective range [2e+00, 2e+01]
  Bounds range    [1e+00, 1e+00]
  RHS range       [1e+00, 1e+00]
Found heuristic solution: objective 27
Presolve removed 5 rows and 31 columns
Presolve time: 0.00s
Presolve: All rows and columns removed

Explored 0 nodes (0 simplex iterations) in 0.00 seconds
Thread count was 1 (of 8 available processors)

Optimal solution found (tolerance 1.00e-04)
Best objective 2.700000000000e+01, best bound 2.700000000000e+01, gap 0.0%

Wrote requested result file 'H1\instance1\\Results1.lp'


Gurobi 6.5.2 (win64) logging started 07/22/16 17:53:55


Gurobi 6.5.2 (win64) logging started 07/22/16 17:53:55

Optimize a model with 8 rows, 64 columns and 64 nonzeros
Coefficient statistics:
  Matrix range    [1e+00, 1e+00]
  Objective range [2e+00, 8e+01]
  Bounds range    [1e+00, 1e+00]
  RHS range       [1e+00, 1e+00]
Found heuristic solution: objective 237
Presolve removed 8 rows and 64 columns
Presolve time: 0.00s
Presolve: All rows and columns removed

Explored 0 nodes (0 simplex iterations) in 0.00 seconds
Thread count was 1 (of 8 available processors)

Optimal solution found (tolerance 1.00e-04)
Best objective 2.370000000000e+02, best bound 2.370000000000e+02, gap 0.0%

Wrote requested result file 'H1\instance1\\Results1.lp'


Gurobi 6.5.2 (win64) logging started 07/22/16 17:54:19


Gurobi 6.5.2 (win64) logging started 07/22/16 17:54:19

Optimize a model with 8 rows, 64 columns and 64 nonzeros
Coefficient statistics:
  Matrix range    [1e+00, 1e+00]
  Objective range [2e+00, 8e+01]
  Bounds range    [1e+00, 1e+00]
  RHS range       [1e+00, 1e+00]
Found heuristic solution: objective 237
Presolve removed 8 rows and 64 columns
Presolve time: 0.00s
Presolve: All rows and columns removed

Explored 0 nodes (0 simplex iterations) in 0.00 seconds
Thread count was 1 (of 8 available processors)

Optimal solution found (tolerance 1.00e-04)
Best objective 2.370000000000e+02, best bound 2.370000000000e+02, gap 0.0%

Wrote requested result file 'H1\instance1\\Results1.lp'


Gurobi 6.5.2 (win64) logging started 07/22/16 17:54:35


Gurobi 6.5.2 (win64) logging started 07/22/16 17:54:35

Optimize a model with 8 rows, 64 columns and 64 nonzeros
Coefficient statistics:
  Matrix range    [1e+00, 1e+00]
  Objective range [2e+00, 8e+01]
  Bounds range    [1e+00, 1e+00]
  RHS range       [1e+00, 1e+00]
Found heuristic solution: objective 237
Presolve removed 8 rows and 64 columns
Presolve time: 0.00s
Presolve: All rows and columns removed

Explored 0 nodes (0 simplex iterations) in 0.00 seconds
Thread count was 1 (of 8 available processors)

Optimal solution found (tolerance 1.00e-04)
Best objective 2.370000000000e+02, best bound 2.370000000000e+02, gap 0.0%

Wrote requested result file 'H1\instance1\\Results1.lp'


Gurobi 6.5.2 (win64) logging started 07/22/16 17:55:06


Gurobi 6.5.2 (win64) logging started 07/22/16 17:55:06

Optimize a model with 8 rows, 64 columns and 64 nonzeros
Coefficient statistics:
  Matrix range    [1e+00, 1e+00]
  Objective range [2e+00, 8e+01]
  Bounds range    [1e+00, 1e+00]
  RHS range       [1e+00, 1e+00]
Found heuristic solution: objective 237
Presolve removed 8 rows and 64 columns
Presolve time: 0.00s
Presolve: All rows and columns removed

Explored 0 nodes (0 simplex iterations) in 0.00 seconds
Thread count was 1 (of 8 available processors)

Optimal solution found (tolerance 1.00e-04)
Best objective 2.370000000000e+02, best bound 2.370000000000e+02, gap 0.0%

Wrote requested result file 'H1\instance1\\Results1.lp'


Gurobi 6.5.2 (win64) logging started 07/22/16 17:55:50


Gurobi 6.5.2 (win64) logging started 07/22/16 17:55:50

Optimize a model with 8 rows, 64 columns and 64 nonzeros
Coefficient statistics:
  Matrix range    [1e+00, 1e+00]
  Objective range [2e+00, 8e+01]
  Bounds range    [1e+00, 1e+00]
  RHS range       [1e+00, 1e+00]
Found heuristic solution: objective 237
Presolve removed 8 rows and 64 columns
Presolve time: 0.02s
Presolve: All rows and columns removed

Explored 0 nodes (0 simplex iterations) in 0.02 seconds
Thread count was 1 (of 8 available processors)

Optimal solution found (tolerance 1.00e-04)
Best objective 2.370000000000e+02, best bound 2.370000000000e+02, gap 0.0%

Wrote requested result file 'H1\instance1\\Results1.lp'


Gurobi 6.5.2 (win64) logging started 07/22/16 17:56:11


Gurobi 6.5.2 (win64) logging started 07/22/16 17:56:11

Optimize a model with 8 rows, 64 columns and 64 nonzeros
Coefficient statistics:
  Matrix range    [1e+00, 1e+00]
  Objective range [2e+00, 8e+01]
  Bounds range    [1e+00, 1e+00]
  RHS range       [1e+00, 1e+00]
Found heuristic solution: objective 237
Presolve removed 8 rows and 64 columns
Presolve time: 0.00s
Presolve: All rows and columns removed

Explored 0 nodes (0 simplex iterations) in 0.00 seconds
Thread count was 1 (of 8 available processors)

Optimal solution found (tolerance 1.00e-04)
Best objective 2.370000000000e+02, best bound 2.370000000000e+02, gap 0.0%

Wrote requested result file 'H1\instance1\\Results1.lp'


Gurobi 6.5.2 (win64) logging started 07/22/16 17:58:56


Gurobi 6.5.2 (win64) logging started 07/22/16 17:58:56

Optimize a model with 8 rows, 67 columns and 67 nonzeros
Coefficient statistics:
  Matrix range    [1e+00, 1e+00]
  Objective range [2e+00, 8e+01]
  Bounds range    [1e+00, 1e+00]
  RHS range       [1e+00, 1e+00]
Found heuristic solution: objective 237
Presolve removed 8 rows and 67 columns
Presolve time: 0.00s
Presolve: All rows and columns removed

Explored 0 nodes (0 simplex iterations) in 0.00 seconds
Thread count was 1 (of 8 available processors)

Optimal solution found (tolerance 1.00e-04)
Best objective 2.370000000000e+02, best bound 2.370000000000e+02, gap 0.0%

Wrote requested result file 'H1\instance1\\Results1.lp'


Gurobi 6.5.2 (win64) logging started 07/22/16 19:03:20


Gurobi 6.5.2 (win64) logging started 07/22/16 19:03:20

Optimize a model with 8 rows, 67 columns and 67 nonzeros
Coefficient statistics:
  Matrix range    [1e+00, 1e+00]
  Objective range [2e+00, 8e+01]
  Bounds range    [1e+00, 1e+00]
  RHS range       [1e+00, 1e+00]
Found heuristic solution: objective 237
Presolve removed 8 rows and 67 columns
Presolve time: 0.00s
Presolve: All rows and columns removed

Explored 0 nodes (0 simplex iterations) in 0.00 seconds
Thread count was 1 (of 8 available processors)

Optimal solution found (tolerance 1.00e-04)
Best objective 2.370000000000e+02, best bound 2.370000000000e+02, gap 0.0%

Wrote requested result file 'H1\instance1\\Results1.lp'


Gurobi 6.5.2 (win64) logging started 07/22/16 19:05:10


Gurobi 6.5.2 (win64) logging started 07/22/16 19:05:10

Optimize a model with 8 rows, 64 columns and 64 nonzeros
Coefficient statistics:
  Matrix range    [1e+00, 1e+00]
  Objective range [2e+00, 8e+01]
  Bounds range    [1e+00, 1e+00]
  RHS range       [1e+00, 1e+00]
Found heuristic solution: objective 237
Presolve removed 8 rows and 64 columns
Presolve time: 0.00s
Presolve: All rows and columns removed

Explored 0 nodes (0 simplex iterations) in 0.00 seconds
Thread count was 1 (of 8 available processors)

Optimal solution found (tolerance 1.00e-04)
Best objective 2.370000000000e+02, best bound 2.370000000000e+02, gap 0.0%

Wrote requested result file 'H1\instance1\\Results1.lp'


Gurobi 6.5.2 (win64) logging started 07/22/16 19:14:51


Gurobi 6.5.2 (win64) logging started 07/22/16 19:14:51

Optimize a model with 132 rows, 64 columns and 312 nonzeros
Coefficient statistics:
  Matrix range    [1e+00, 1e+00]
  Objective range [2e+00, 8e+01]
  Bounds range    [1e+00, 1e+00]
  RHS range       [1e+00, 1e+00]
Found heuristic solution: objective -0
Presolve removed 90 rows and 8 columns
Presolve time: 0.00s
Presolved: 42 rows, 56 columns, 144 nonzeros
Variable types: 0 continuous, 56 integer (56 binary)

Root relaxation: objective 2.200000e+02, 13 iterations, 0.00 seconds

    Nodes    |    Current Node    |     Objective Bounds      |     Work
 Expl Unexpl |  Obj  Depth IntInf | Incumbent    BestBd   Gap | It/Node Time

*    0     0               0     220.0000000  220.00000  0.00%     -    0s

Explored 0 nodes (13 simplex iterations) in 0.00 seconds
Thread count was 8 (of 8 available processors)

Optimal solution found (tolerance 1.00e-04)
Best objective 2.200000000000e+02, best bound 2.200000000000e+02, gap 0.0%

Wrote requested result file 'H1\instance1\\Results1.lp'


Gurobi 6.5.2 (win64) logging started 07/22/16 19:15:03


Gurobi 6.5.2 (win64) logging started 07/22/16 19:15:03

Optimize a model with 132 rows, 64 columns and 312 nonzeros
Coefficient statistics:
  Matrix range    [1e+00, 1e+00]
  Objective range [2e+00, 8e+01]
  Bounds range    [1e+00, 1e+00]
  RHS range       [1e+00, 1e+00]
Found heuristic solution: objective -0
Presolve removed 90 rows and 8 columns
Presolve time: 0.00s
Presolved: 42 rows, 56 columns, 144 nonzeros
Variable types: 0 continuous, 56 integer (56 binary)

Root relaxation: objective 2.200000e+02, 13 iterations, 0.00 seconds

    Nodes    |    Current Node    |     Objective Bounds      |     Work
 Expl Unexpl |  Obj  Depth IntInf | Incumbent    BestBd   Gap | It/Node Time

*    0     0               0     220.0000000  220.00000  0.00%     -    0s

Explored 0 nodes (13 simplex iterations) in 0.00 seconds
Thread count was 8 (of 8 available processors)

Optimal solution found (tolerance 1.00e-04)
Best objective 2.200000000000e+02, best bound 2.200000000000e+02, gap 0.0%

Wrote requested result file 'H1\instance1\\Results1.lp'


Gurobi 6.5.2 (win64) logging started 07/22/16 19:25:51


Gurobi 6.5.2 (win64) logging started 07/22/16 19:25:51

Optimize a model with 133 rows, 64 columns and 312 nonzeros
Coefficient statistics:
  Matrix range    [1e+00, 1e+00]
  Objective range [2e+00, 8e+01]
  Bounds range    [1e+00, 1e+00]
  RHS range       [1e+00, 1e+00]
Found heuristic solution: objective -0
Presolve removed 91 rows and 8 columns
Presolve time: 0.00s
Presolved: 42 rows, 56 columns, 144 nonzeros
Variable types: 0 continuous, 56 integer (56 binary)

Root relaxation: objective 2.200000e+02, 13 iterations, 0.00 seconds

    Nodes    |    Current Node    |     Objective Bounds      |     Work
 Expl Unexpl |  Obj  Depth IntInf | Incumbent    BestBd   Gap | It/Node Time

*    0     0               0     220.0000000  220.00000  0.00%     -    0s

Explored 0 nodes (13 simplex iterations) in 0.02 seconds
Thread count was 8 (of 8 available processors)

Optimal solution found (tolerance 1.00e-04)
Best objective 2.200000000000e+02, best bound 2.200000000000e+02, gap 0.0%

Wrote requested result file 'H1\instance1\\Results1.lp'


Gurobi 6.5.2 (win64) logging started 07/22/16 19:27:49


Gurobi 6.5.2 (win64) logging started 07/22/16 19:27:49

Optimize a model with 132 rows, 64 columns and 312 nonzeros
Coefficient statistics:
  Matrix range    [1e+00, 1e+00]
  Objective range [2e+00, 8e+01]
  Bounds range    [1e+00, 1e+00]
  RHS range       [1e+00, 1e+00]
Found heuristic solution: objective -0
Presolve removed 90 rows and 8 columns
Presolve time: 0.00s
Presolved: 42 rows, 56 columns, 144 nonzeros
Variable types: 0 continuous, 56 integer (56 binary)

Root relaxation: objective 2.200000e+02, 13 iterations, 0.00 seconds

    Nodes    |    Current Node    |     Objective Bounds      |     Work
 Expl Unexpl |  Obj  Depth IntInf | Incumbent    BestBd   Gap | It/Node Time

*    0     0               0     220.0000000  220.00000  0.00%     -    0s

Explored 0 nodes (13 simplex iterations) in 0.00 seconds
Thread count was 8 (of 8 available processors)

Optimal solution found (tolerance 1.00e-04)
Best objective 2.200000000000e+02, best bound 2.200000000000e+02, gap 0.0%

Wrote requested result file 'H1\instance1\\Results1.lp'


Gurobi 6.5.2 (win64) logging started 07/22/16 19:28:13


Gurobi 6.5.2 (win64) logging started 07/22/16 19:28:13

Optimize a model with 133 rows, 64 columns and 312 nonzeros
Coefficient statistics:
  Matrix range    [1e+00, 1e+00]
  Objective range [2e+00, 8e+01]
  Bounds range    [1e+00, 1e+00]
  RHS range       [1e+00, 1e+00]
Found heuristic solution: objective -0
Presolve removed 91 rows and 8 columns
Presolve time: 0.00s
Presolved: 42 rows, 56 columns, 144 nonzeros
Variable types: 0 continuous, 56 integer (56 binary)

Root relaxation: objective 2.200000e+02, 13 iterations, 0.00 seconds

    Nodes    |    Current Node    |     Objective Bounds      |     Work
 Expl Unexpl |  Obj  Depth IntInf | Incumbent    BestBd   Gap | It/Node Time

*    0     0               0     220.0000000  220.00000  0.00%     -    0s

Explored 0 nodes (13 simplex iterations) in 0.00 seconds
Thread count was 8 (of 8 available processors)

Optimal solution found (tolerance 1.00e-04)
Best objective 2.200000000000e+02, best bound 2.200000000000e+02, gap 0.0%

Wrote requested result file 'H1\instance1\\Results1.lp'


Gurobi 6.5.2 (win64) logging started 07/22/16 19:32:03


Gurobi 6.5.2 (win64) logging started 07/22/16 19:32:03

Optimize a model with 684 rows, 117 columns and 1453 nonzeros
Coefficient statistics:
  Matrix range    [1e+00, 1e+00]
  Objective range [4e+00, 4e+02]
  Bounds range    [1e+00, 1e+00]
  RHS range       [1e+00, 1e+00]
Found heuristic solution: objective 18
Presolve removed 656 rows and 25 columns
Presolve time: 0.00s
Presolved: 28 rows, 92 columns, 210 nonzeros
Variable types: 0 continuous, 92 integer (92 binary)

Root relaxation: objective 1.404000e+03, 32 iterations, 0.00 seconds

    Nodes    |    Current Node    |     Objective Bounds      |     Work
 Expl Unexpl |  Obj  Depth IntInf | Incumbent    BestBd   Gap | It/Node Time

*    0     0               0    1404.0000000 1404.00000  0.00%     -    0s

Explored 0 nodes (32 simplex iterations) in 0.00 seconds
Thread count was 8 (of 8 available processors)

Optimal solution found (tolerance 1.00e-04)
Best objective 1.404000000000e+03, best bound 1.404000000000e+03, gap 0.0%

Wrote requested result file 'H1\instance1\\Results1.lp'


Gurobi 6.5.2 (win64) logging started 07/22/16 19:38:25


Gurobi 6.5.2 (win64) logging started 07/22/16 19:38:25

Optimize a model with 657 rows, 180 columns and 1452 nonzeros
Coefficient statistics:
  Matrix range    [1e+00, 1e+00]
  Objective range [2e+00, 3e+02]
  Bounds range    [1e+00, 1e+00]
  RHS range       [1e+00, 1e+00]
Found heuristic solution: objective -0
Presolve removed 621 rows and 92 columns
Presolve time: 0.02s
Presolved: 36 rows, 88 columns, 222 nonzeros
Found heuristic solution: objective 1089.0000000
Variable types: 0 continuous, 88 integer (88 binary)

Root relaxation: objective 1.305000e+03, 33 iterations, 0.00 seconds

    Nodes    |    Current Node    |     Objective Bounds      |     Work
 Expl Unexpl |  Obj  Depth IntInf | Incumbent    BestBd   Gap | It/Node Time

*    0     0               0    1305.0000000 1305.00000  0.00%     -    0s

Explored 0 nodes (33 simplex iterations) in 0.03 seconds
Thread count was 8 (of 8 available processors)

Optimal solution found (tolerance 1.00e-04)
Best objective 1.305000000000e+03, best bound 1.305000000000e+03, gap 0.0%

Wrote requested result file 'H1\instance1\\Results1.lp'


Gurobi 6.5.2 (win64) logging started 07/22/16 19:38:58


Gurobi 6.5.2 (win64) logging started 07/22/16 19:38:58

Optimize a model with 657 rows, 180 columns and 1452 nonzeros
Coefficient statistics:
  Matrix range    [1e+00, 1e+00]
  Objective range [2e+00, 3e+02]
  Bounds range    [1e+00, 1e+00]
  RHS range       [1e+00, 1e+00]
Found heuristic solution: objective -0
Presolve removed 621 rows and 92 columns
Presolve time: 0.00s
Presolved: 36 rows, 88 columns, 222 nonzeros
Found heuristic solution: objective 1089.0000000
Variable types: 0 continuous, 88 integer (88 binary)

Root relaxation: objective 1.305000e+03, 33 iterations, 0.00 seconds

    Nodes    |    Current Node    |     Objective Bounds      |     Work
 Expl Unexpl |  Obj  Depth IntInf | Incumbent    BestBd   Gap | It/Node Time

*    0     0               0    1305.0000000 1305.00000  0.00%     -    0s

Explored 0 nodes (33 simplex iterations) in 0.01 seconds
Thread count was 8 (of 8 available processors)

Optimal solution found (tolerance 1.00e-04)
Best objective 1.305000000000e+03, best bound 1.305000000000e+03, gap 0.0%

Wrote requested result file 'H1\instance1\\Results1.lp'


Gurobi 6.5.2 (win64) logging started 07/22/16 19:48:51


Gurobi 6.5.2 (win64) logging started 07/22/16 19:48:51

Optimize a model with 684 rows, 117 columns and 1453 nonzeros
Coefficient statistics:
  Matrix range    [1e+00, 1e+00]
  Objective range [4e+00, 4e+02]
  Bounds range    [1e+00, 1e+00]
  RHS range       [1e+00, 1e+00]
Found heuristic solution: objective 18
Presolve removed 656 rows and 25 columns
Presolve time: 0.00s
Presolved: 28 rows, 92 columns, 210 nonzeros
Variable types: 0 continuous, 92 integer (92 binary)

Root relaxation: objective 1.404000e+03, 32 iterations, 0.00 seconds

    Nodes    |    Current Node    |     Objective Bounds      |     Work
 Expl Unexpl |  Obj  Depth IntInf | Incumbent    BestBd   Gap | It/Node Time

*    0     0               0    1404.0000000 1404.00000  0.00%     -    0s

Explored 0 nodes (32 simplex iterations) in 0.02 seconds
Thread count was 8 (of 8 available processors)

Optimal solution found (tolerance 1.00e-04)
Best objective 1.404000000000e+03, best bound 1.404000000000e+03, gap 0.0%

Wrote requested result file 'H1\instance1\\Results1.lp'


Gurobi 6.5.2 (win64) logging started 07/22/16 20:21:59


Gurobi 6.5.2 (win64) logging started 07/22/16 20:21:59

Optimize a model with 684 rows, 117 columns and 1453 nonzeros
Coefficient statistics:
  Matrix range    [1e+00, 1e+00]
  Objective range [4e+00, 4e+02]
  Bounds range    [1e+00, 1e+00]
  RHS range       [1e+00, 1e+00]
Found heuristic solution: objective 18
Presolve removed 656 rows and 25 columns
Presolve time: 0.00s
Presolved: 28 rows, 92 columns, 210 nonzeros
Variable types: 0 continuous, 92 integer (92 binary)

Root relaxation: objective 1.404000e+03, 32 iterations, 0.00 seconds

    Nodes    |    Current Node    |     Objective Bounds      |     Work
 Expl Unexpl |  Obj  Depth IntInf | Incumbent    BestBd   Gap | It/Node Time

*    0     0               0    1404.0000000 1404.00000  0.00%     -    0s

Explored 0 nodes (32 simplex iterations) in 0.01 seconds
Thread count was 8 (of 8 available processors)

Optimal solution found (tolerance 1.00e-04)
Best objective 1.404000000000e+03, best bound 1.404000000000e+03, gap 0.0%

Wrote requested result file 'H1\instance1\\Results1.lp'


Gurobi 6.5.2 (win64) logging started 07/22/16 21:02:43


Gurobi 6.5.2 (win64) logging started 07/22/16 21:02:43

Optimize a model with 684 rows, 117 columns and 1453 nonzeros
Coefficient statistics:
  Matrix range    [1e+00, 1e+00]
  Objective range [4e+00, 4e+02]
  Bounds range    [1e+00, 1e+00]
  RHS range       [1e+00, 1e+00]
Found heuristic solution: objective 18
Presolve removed 656 rows and 25 columns
Presolve time: 0.03s
Presolved: 28 rows, 92 columns, 210 nonzeros
Variable types: 0 continuous, 92 integer (92 binary)

Root relaxation: objective 1.404000e+03, 32 iterations, 0.02 seconds

    Nodes    |    Current Node    |     Objective Bounds      |     Work
 Expl Unexpl |  Obj  Depth IntInf | Incumbent    BestBd   Gap | It/Node Time

*    0     0               0    1404.0000000 1404.00000  0.00%     -    0s

Explored 0 nodes (32 simplex iterations) in 0.13 seconds
Thread count was 8 (of 8 available processors)

Optimal solution found (tolerance 1.00e-04)
Best objective 1.404000000000e+03, best bound 1.404000000000e+03, gap 0.0%

Wrote requested result file 'H1\instance1\\Results1.lp'

